(declare-fun v2 () (_ BitVec 14))
(declare-fun a60 () (Array (_ BitVec 15) (_ BitVec 11)))
(assert
(let (($e24 (_ bv0 3)))
(let (($e27 (_ bv8191 13)))
(let (($e187 (   extract        v2)))
(let (($e230 (concat v2    $e187)))
(let (($e317 (select a60   $e230)))
(let (($e671 (concat $e24 $e317)))
(let (($e672 (bvand $e671 v2)))
(let (($e829 (concat $e27  $e187)))
(let (($e830 (bvand $e829 $e672)))
             (ite        $e187  $e672 $e830)
                                                                                                                                                                                                                                                                                                                                                                                                                                                                                                                                                                                                                                                                                                                                                                                                                                                                                                                                                                                                                                                                                                                                                                                                                                                                                                                                                                                                                                                                                                                                                                                                                                                                                                                                                                                                                                                                                                                                                                                                                                                                                                                                                                                                                                                                                                                                                                                                                                                                                                                                                                                                                                                                                                                                                                                                                                                                                                                                                                                                                                                                                                                                                                                                                                                                                                                                                                                                                                                                                                                                                                                                                                                                                                                                                                                                                                                ))                                                                                                                                                            ))                                                                                                                                                                                                                                                                                                                                                                 )                                                                                      )                                          )                                                                                                                                                )  )                       )
